sat
(
  (define-fun M () String
    "")
  (define-fun K () String
    "")
  (define-fun P () String
    "")
  (define-fun S () String
    "")
  (define-fun G () String
    "")
  (define-fun J () String
    "")
  (define-fun L () String
    "")
  (define-fun H () String
    "aaaaaaaabaaabbb")
  (define-fun V () String
    "aabaabaabaabaa")
  (define-fun R () String
    "")
)
